LatticeConstant 1.0 Ang
%block LatticeVectors
 29.96113784 0.00000000 0.00000000
 0.00000000 17.29807100 0.00000000
 0.00000000 0.00000000 25.00000000
%endblock LatticeVectors

NumberOfAtoms 216
AtomicCoordinatesFormat Ang
%block AtomicCoordinatesAndAtomicSpecies
  1.42672085 14.82691800 12.50000000 1 #   1: C
  3.56680212 16.06249450 12.50000000 1 #   2: C
  1.42672085 12.35576500 12.50000000 1 #   3: C
  3.56680212 13.59134150 12.50000000 1 #   4: C
  5.70688340 14.82691800 12.50000000 1 #   5: C
  7.84696467 16.06249450 12.50000000 1 #   6: C
  1.42672085  9.88461200 12.50000000 1 #   7: C
  3.56680212 11.12018850 12.50000000 1 #   8: C
  5.70688340 12.35576500 12.50000000 1 #   9: C
  7.84696467 13.59134150 12.50000000 1 #  10: C
  9.98704595 14.82691800 12.50000000 1 #  11: C
 12.12712722 16.06249450 12.50000000 1 #  12: C
  1.42672085  7.41345900 12.50000000 1 #  13: C
  3.56680212  8.64903550 12.50000000 1 #  14: C
  5.70688340  9.88461200 12.50000000 1 #  15: C
  7.84696467 11.12018850 12.50000000 1 #  16: C
  9.98704595 12.35576500 12.50000000 1 #  17: C
 12.12712722 13.59134150 12.50000000 1 #  18: C
 14.26720850 14.82691800 12.50000000 1 #  19: C
 16.40728977 16.06249450 12.50000000 1 #  20: C
  1.42672085  4.94230600 12.50000000 1 #  21: C
  3.56680212  6.17788250 12.50000000 1 #  22: C
  5.70688340  7.41345900 12.50000000 1 #  23: C
  7.84696467  8.64903550 12.50000000 1 #  24: C
  9.98704595  9.88461200 12.50000000 1 #  25: C
 12.12712722 11.12018850 12.50000000 1 #  26: C
 14.26720850 12.35576500 12.50000000 1 #  27: C
 16.40728977 13.59134150 12.50000000 1 #  28: C
 18.54737105 14.82691800 12.50000000 1 #  29: C
 20.68745232 16.06249450 12.50000000 1 #  30: C
  1.42672085  2.47115300 12.50000000 1 #  31: C
  3.56680212  3.70672950 12.50000000 1 #  32: C
  5.70688340  4.94230600 12.50000000 1 #  33: C
  7.84696467  6.17788250 12.50000000 1 #  34: C
  9.98704595  7.41345900 12.50000000 1 #  35: C
 12.12712722  8.64903550 12.50000000 1 #  36: C
 14.26720850  9.88461200 12.50000000 1 #  37: C
 16.40728977 11.12018850 12.50000000 1 #  38: C
 18.54737105 12.35576500 12.50000000 1 #  39: C
 20.68745232 13.59134150 12.50000000 1 #  40: C
 22.82753360 14.82691800 12.50000000 1 #  41: C
 24.96761487 16.06249450 12.50000000 1 #  42: C
  1.42672085 17.29807100 12.50000000 1 #  43: C
  3.56680212  1.23557650 12.50000000 1 #  44: C
  5.70688340  2.47115300 12.50000000 1 #  45: C
  7.84696467  3.70672950 12.50000000 1 #  46: C
  9.98704595  4.94230600 12.50000000 1 #  47: C
 12.12712722  6.17788250 12.50000000 1 #  48: C
 14.26720850  7.41345900 12.50000000 1 #  49: C
 16.40728977  8.64903550 12.50000000 1 #  50: C
 18.54737105  9.88461200 12.50000000 1 #  51: C
 20.68745232 11.12018850 12.50000000 1 #  52: C
 22.82753360 12.35576500 12.50000000 1 #  53: C
 24.96761487 13.59134150 12.50000000 1 #  54: C
 27.10769615 14.82691800 12.50000000 1 #  55: C
 29.24777742 16.06249450 12.50000000 1 #  56: C
  5.70688340 17.29807100 12.50000000 1 #  57: C
  7.84696467  1.23557650 12.50000000 1 #  58: C
  9.98704595  2.47115300 12.50000000 1 #  59: C
 12.12712722  3.70672950 12.50000000 1 #  60: C
 14.26720850  4.94230600 12.50000000 1 #  61: C
 16.40728977  6.17788250 12.50000000 1 #  62: C
 18.54737105  7.41345900 12.50000000 1 #  63: C
 20.68745232  8.64903550 12.50000000 1 #  64: C
 22.82753360  9.88461200 12.50000000 1 #  65: C
 24.96761487 11.12018850 12.50000000 1 #  66: C
 27.10769615 12.35576500 12.50000000 1 #  67: C
 29.24777742 13.59134150 12.50000000 1 #  68: C
  9.98704595 17.29807100 12.50000000 1 #  69: C
 12.12712722  1.23557650 12.50000000 1 #  70: C
 14.26720850  2.47115300 12.50000000 1 #  71: C
 16.40728977  3.70672950 12.50000000 1 #  72: C
 18.54737105  4.94230600 12.50000000 1 #  73: C
 20.68745232  6.17788250 12.50000000 1 #  74: C
 22.82753360  7.41345900 12.50000000 1 #  75: C
 24.96761487  8.64903550 12.50000000 1 #  76: C
 27.10769615  9.88461200 12.50000000 1 #  77: C
 29.24777742 11.12018850 12.50000000 1 #  78: C
 14.26720850 17.29807100 12.50000000 1 #  79: C
 16.40728977  1.23557650 12.50000000 1 #  80: C
 18.54737105  2.47115300 12.50000000 1 #  81: C
 20.68745232  3.70672950 12.50000000 1 #  82: C
 22.82753360  4.94230600 12.50000000 1 #  83: C
 24.96761487  6.17788250 12.50000000 1 #  84: C
 27.10769615  7.41345900 12.50000000 1 #  85: C
 29.24777742  8.64903550 12.50000000 1 #  86: C
 18.54737105 17.29807100 12.50000000 1 #  87: C
 20.68745232  1.23557650 12.50000000 1 #  88: C
 22.82753360  2.47115300 12.50000000 1 #  89: C
 24.96761487  3.70672950 12.50000000 1 #  90: C
 27.10769615  4.94230600 12.50000000 1 #  91: C
 29.24777742  6.17788250 12.50000000 1 #  92: C
 22.82753360 17.29807100 12.50000000 1 #  93: C
 24.96761487  1.23557650 12.50000000 1 #  94: C
 27.10769615  2.47115300 12.50000000 1 #  95: C
 29.24777742  3.70672950 12.50000000 1 #  96: C
 27.10769615 17.29807100 12.50000000 1 #  97: C
 29.24777742  1.23557650 12.50000000 1 #  98: C
  2.85344170 14.82691800 12.50000000 1 #  99: C
  4.99352297 16.06249450 12.50000000 1 # 100: C
  2.85344170 12.35576500 12.50000000 1 # 101: C
  4.99352297 13.59134150 12.50000000 1 # 102: C
  7.13360425 14.82691800 12.50000000 1 # 103: C
  9.27368552 16.06249450 12.50000000 1 # 104: C
  2.85344170  9.88461200 12.50000000 1 # 105: C
  4.99352297 11.12018850 12.50000000 1 # 106: C
  7.13360425 12.35576500 12.50000000 1 # 107: C
  9.27368552 13.59134150 12.50000000 1 # 108: C
 11.41376680 14.82691800 12.50000000 1 # 109: C
 13.55384807 16.06249450 12.50000000 1 # 110: C
  2.85344170  7.41345900 12.50000000 1 # 111: C
  4.99352297  8.64903550 12.50000000 1 # 112: C
  7.13360425  9.88461200 12.50000000 1 # 113: C
  9.27368552 11.12018850 12.50000000 1 # 114: C
 11.41376680 12.35576500 12.50000000 1 # 115: C
 13.55384807 13.59134150 12.50000000 1 # 116: C
 15.69392935 14.82691800 12.50000000 1 # 117: C
 17.83401062 16.06249450 12.50000000 1 # 118: C
  2.85344170  4.94230600 12.50000000 1 # 119: C
  4.99352297  6.17788250 12.50000000 1 # 120: C
  7.13360425  7.41345900 12.50000000 1 # 121: C
  9.27368552  8.64903550 12.50000000 1 # 122: C
 11.41376680  9.88461200 12.50000000 1 # 123: C
 13.55384807 11.12018850 12.50000000 1 # 124: C
 15.69392935 12.35576500 12.50000000 1 # 125: C
 17.83401062 13.59134150 12.50000000 1 # 126: C
 19.97409190 14.82691800 12.50000000 1 # 127: C
 22.11417317 16.06249450 12.50000000 1 # 128: C
  2.85344170  2.47115300 12.50000000 1 # 129: C
  4.99352297  3.70672950 12.50000000 1 # 130: C
  7.13360425  4.94230600 12.50000000 1 # 131: C
  9.27368552  6.17788250 12.50000000 1 # 132: C
 11.41376680  7.41345900 12.50000000 1 # 133: C
 13.55384807  8.64903550 12.50000000 1 # 134: C
 15.69392935  9.88461200 12.50000000 1 # 135: C
 17.83401062 11.12018850 12.50000000 1 # 136: C
 19.97409190 12.35576500 12.50000000 1 # 137: C
 22.11417317 13.59134150 12.50000000 1 # 138: C
 24.25425445 14.82691800 12.50000000 1 # 139: C
 26.39433572 16.06249450 12.50000000 1 # 140: C
  2.85344170 17.29807100 12.50000000 1 # 141: C
  4.99352297  1.23557650 12.50000000 1 # 142: C
  7.13360425  2.47115300 12.50000000 1 # 143: C
  9.27368552  3.70672950 12.50000000 1 # 144: C
 11.41376680  4.94230600 12.50000000 1 # 145: C
 13.55384807  6.17788250 12.50000000 1 # 146: C
 15.69392935  7.41345900 12.50000000 1 # 147: C
 17.83401062  8.64903550 12.50000000 1 # 148: C
 19.97409190  9.88461200 12.50000000 1 # 149: C
 22.11417317 11.12018850 12.50000000 1 # 150: C
 24.25425445 12.35576500 12.50000000 1 # 151: C
 26.39433572 13.59134150 12.50000000 1 # 152: C
 28.53441700 14.82691800 12.50000000 1 # 153: C
  0.71336042 16.06249450 12.50000000 1 # 154: C
  7.13360425 17.29807100 12.50000000 1 # 155: C
  9.27368552  1.23557650 12.50000000 1 # 156: C
 11.41376680  2.47115300 12.50000000 1 # 157: C
 13.55384807  3.70672950 12.50000000 1 # 158: C
 15.69392935  4.94230600 12.50000000 1 # 159: C
 17.83401062  6.17788250 12.50000000 1 # 160: C
 19.97409190  7.41345900 12.50000000 1 # 161: C
 22.11417317  8.64903550 12.50000000 1 # 162: C
 24.25425445  9.88461200 12.50000000 1 # 163: C
 26.39433572 11.12018850 12.50000000 1 # 164: C
 28.53441700 12.35576500 12.50000000 1 # 165: C
  0.71336042 13.59134150 12.50000000 1 # 166: C
 11.41376680 17.29807100 12.50000000 1 # 167: C
 13.55384807  1.23557650 12.50000000 1 # 168: C
 15.69392935  2.47115300 12.50000000 1 # 169: C
 17.83401062  3.70672950 12.50000000 1 # 170: C
 19.97409190  4.94230600 12.50000000 1 # 171: C
 22.11417317  6.17788250 12.50000000 1 # 172: C
 24.25425445  7.41345900 12.50000000 1 # 173: C
 26.39433572  8.64903550 12.50000000 1 # 174: C
 28.53441700  9.88461200 12.50000000 1 # 175: C
  0.71336042 11.12018850 12.50000000 1 # 176: C
 15.69392935 17.29807100 12.50000000 1 # 177: C
 17.83401062  1.23557650 12.50000000 1 # 178: C
 19.97409190  2.47115300 12.50000000 1 # 179: C
 22.11417317  3.70672950 12.50000000 1 # 180: C
 24.25425445  4.94230600 12.50000000 1 # 181: C
 26.39433572  6.17788250 12.50000000 1 # 182: C
 28.53441700  7.41345900 12.50000000 1 # 183: C
  0.71336042  8.64903550 12.50000000 1 # 184: C
 19.97409190 17.29807100 12.50000000 1 # 185: C
 22.11417317  1.23557650 12.50000000 1 # 186: C
 24.25425445  2.47115300 12.50000000 1 # 187: C
 26.39433572  3.70672950 12.50000000 1 # 188: C
 28.53441700  4.94230600 12.50000000 1 # 189: C
  0.71336042  6.17788250 12.50000000 1 # 190: C
 24.25425445 17.29807100 12.50000000 1 # 191: C
 26.39433572  1.23557650 12.50000000 1 # 192: C
 28.53441700  2.47115300 12.50000000 1 # 193: C
  0.71336042  3.70672950 12.50000000 1 # 194: C
 28.53441700 17.29807100 12.50000000 1 # 195: C
  0.71336042  1.23557650 12.50000000 1 # 196: C
 16.43890290  7.41347491 15.79982456 1 # 197: C
 13.52223988  7.41345257 15.80031795 1 # 198: C
 14.29648269  6.19778612 15.80027137 1 # 199: C
 14.29646462  8.62913180 15.80022487 1 # 200: C
 15.66464361  8.62914654 15.79996906 1 # 201: C
 15.66465273  6.19778184 15.79997833 1 # 202: C
 17.83982613  7.41366241 15.79969113 1 # 203: C
 12.12138226  7.41344447 15.80021819 1 # 204: C
 18.57733018  6.19549100 15.79931647 1 # 205: C
 18.57690450  8.63056623 15.80027683 1 # 206: C
 11.38392736  6.19569341 15.80040119 1 # 207: C
 11.38385802  8.63122007 15.79951076 1 # 208: C
 19.14686428  5.14470450 15.79911837 2 # 209: N
 19.14735045  9.68293887 15.80117219 2 # 210: N
 10.81421657  5.14448533 15.80044310 2 # 211: N
 10.81403266  9.68227989 15.79855269 2 # 212: N
 16.27732142  5.00369909 15.79995377 3 # 213: F
 13.68385631  5.00367955 15.80039273 3 # 214: F
 16.27730888  9.82323677 15.79980197 3 # 215: F
 13.68378443  9.82321356 15.80037721 3 # 216: F
%endblock AtomicCoordinatesAndAtomicSpecies

NumberOfSpecies 3
%block ChemicalSpeciesLabel
 1 6 C
 2 7 N
 3 9 F
%endblock ChemicalSpeciesLabel
